NAME      new_example_1
ROWS
 N  obj
 L  e1
 G  e2
 G  e3
COLUMNS
    x0        obj                  0
    x0        e1                   3
    x0        e2                   1
    x0        e3                   2
    x1        obj                  0
    x1        e1                  -1
    x1        e2                  -2
    x1        e3                   1
    x2        obj                  0
    x2        e1                  -2
    x2        e2                   1
    x2        e3                   1
RHS
    rhs       e1                   1
    rhs       e2                  -1
    rhs       e3                   5
BOUNDS
 LO bnd       x0                   1
 LO bnd       x1                   0
 LO bnd       x2                   1
 UP bnd       x0                   3
 UP bnd       x1                   2
 UP bnd       x2                   4
ENDATA
